decision_x1=[0,7];
decision_x2=[0,7];
decision_x3=[0,7];
decision_x4=[0,7];
decision_x5=[0,7];
decision_x6=[0,7];
decision_x7=[0,7];
decision_x8=[0,7];
decision_x9=[0,7];
decision_x10=[0,7];
decision_x11=[0,7];
decision_x12=[0,7];
decision_x13=[0,7];
decision_x14=[0,7];
decision_x15=[0,7];
decision_x16=[0,7];
random_y1=[0,7];
random_y2=[0,7];
random_y3=[0,7];
random_y4=[0,7];
random_y5=[0,7];
random_y6=[0,7];
random_y7=[0,7];
constraint_x2_x1=[
0,0,0.62|
0,1,3.2|
0,2,5.6|
0,3,3.9|
0,4,5.4|
0,5,5.2|
0,6,3.4|
0,7,9.7|
1,0,8.1|
1,1,4.6|
1,2,7|
1,3,6.8|
1,4,3|
1,5,9.1|
1,6,1.4|
1,7,0.14|
2,0,1.5|
2,1,4.6|
2,2,4.4|
2,3,3.9|
2,4,3.6|
2,5,6.8|
2,6,8|
2,7,6.7|
3,0,4.8|
3,1,0.85|
3,2,4.8|
3,3,2.9|
3,4,7.9|
3,5,7.3|
3,6,6.8|
3,7,5.7|
4,0,6.5|
4,1,3.2|
4,2,2.6|
4,3,6.3|
4,4,5.8|
4,5,7.4|
4,6,3.4|
4,7,2.1|
5,0,6.8|
5,1,3.8|
5,2,9.1|
5,3,2.2|
5,4,3.4|
5,5,1.4|
5,6,3.2|
5,7,2.8|
6,0,3.2|
6,1,4.5|
6,2,1.9|
6,3,3.7|
6,4,7.1|
6,5,3.4|
6,6,9.3|
6,7,7|
7,0,3|
7,1,2.2|
7,2,0.51|
7,3,4.9|
7,4,2.2|
7,5,9.9|
7,6,2.1|
7,7,6.5|
];
constraint_x3_x2=[
0,0,0.26|
0,1,7.4|
0,2,2.1|
0,3,2.2|
0,4,6.3|
0,5,3.6|
0,6,4.5|
0,7,4.2|
1,0,0.79|
1,1,0.72|
1,2,2.4|
1,3,9.1|
1,4,2|
1,5,10|
1,6,9.7|
1,7,8|
2,0,2.7|
2,1,4.1|
2,2,7.5|
2,3,8.1|
2,4,7.7|
2,5,8.2|
2,6,8.9|
2,7,9.7|
3,0,2.3|
3,1,3.1|
3,2,8|
3,3,8.8|
3,4,8.2|
3,5,1.5|
3,6,6.5|
3,7,9.2|
4,0,5.5|
4,1,8.2|
4,2,9.5|
4,3,6.4|
4,4,8.7|
4,5,8.6|
4,6,2.3|
4,7,8.8|
5,0,8.1|
5,1,8.6|
5,2,1.2|
5,3,5.7|
5,4,5.6|
5,5,0.89|
5,6,6.5|
5,7,5.2|
6,0,9.9|
6,1,4.8|
6,2,3.1|
6,3,5.1|
6,4,1.4|
6,5,7.6|
6,6,8.5|
6,7,9.4|
7,0,0.98|
7,1,2.3|
7,2,1.5|
7,3,7.2|
7,4,0.64|
7,5,8.6|
7,6,3.8|
7,7,0.37|
];
constraint_x4_x3=[
0,0,4.5|
0,1,9.4|
0,2,5.3|
0,3,8.2|
0,4,1.8|
0,5,4.2|
0,6,9.4|
0,7,6.9|
1,0,5.4|
1,1,7.9|
1,2,9.8|
1,3,0.12|
1,4,2.6|
1,5,6.5|
1,6,9.4|
1,7,8.8|
2,0,6.5|
2,1,3.4|
2,2,6.8|
2,3,6.3|
2,4,6.8|
2,5,9.2|
2,6,0.56|
2,7,5.7|
3,0,2.6|
3,1,6.9|
3,2,5.8|
3,3,1.3|
3,4,4.8|
3,5,4.8|
3,6,5.3|
3,7,9.9|
4,0,6.9|
4,1,3|
4,2,8.2|
4,3,9.9|
4,4,0.084|
4,5,5.8|
4,6,6.9|
4,7,2.5|
5,0,2.9|
5,1,2.4|
5,2,6.4|
5,3,2.4|
5,4,3.3|
5,5,4.9|
5,6,2.3|
5,7,10|
6,0,7.7|
6,1,7.7|
6,2,6|
6,3,2.2|
6,4,0.46|
6,5,1.1|
6,6,8.4|
6,7,1.9|
7,0,1.7|
7,1,2.2|
7,2,1.5|
7,3,5.5|
7,4,4.4|
7,5,5.8|
7,6,6.6|
7,7,6.5|
];
constraint_x5_x1=[
0,0,1.3|
0,1,4.8|
0,2,1.5|
0,3,9.9|
0,4,5.9|
0,5,7.4|
0,6,3.3|
0,7,2.9|
1,0,7.2|
1,1,4|
1,2,0.22|
1,3,9.6|
1,4,4.2|
1,5,8.4|
1,6,7.3|
1,7,7.8|
2,0,6.8|
2,1,8.2|
2,2,9.2|
2,3,1.9|
2,4,3.7|
2,5,0.15|
2,6,2.5|
2,7,0.089|
3,0,3.7|
3,1,1.8|
3,2,9.9|
3,3,0.1|
3,4,2.6|
3,5,3.1|
3,6,8.3|
3,7,4.9|
4,0,7.7|
4,1,0.27|
4,2,2.6|
4,3,7.8|
4,4,9.5|
4,5,5.6|
4,6,4.4|
4,7,1.8|
5,0,5.7|
5,1,3.9|
5,2,4.2|
5,3,0.05|
5,4,3.2|
5,5,8.1|
5,6,5.5|
5,7,4.2|
6,0,6.3|
6,1,1.5|
6,2,7.1|
6,3,9.1|
6,4,2.6|
6,5,1.1|
6,6,9|
6,7,8.6|
7,0,6.7|
7,1,4|
7,2,7.4|
7,3,2.9|
7,4,4.5|
7,5,2.9|
7,6,5.3|
7,7,1.5|
];
constraint_x6_x2=[
0,0,0.62|
0,1,1.6|
0,2,7|
0,3,1.6|
0,4,7.5|
0,5,6.5|
0,6,1.5|
0,7,2.1|
1,0,0.11|
1,1,6.6|
1,2,6.5|
1,3,4.4|
1,4,9.9|
1,5,2.1|
1,6,1.5|
1,7,7.8|
2,0,8.7|
2,1,8|
2,2,7.9|
2,3,4.6|
2,4,7.3|
2,5,8.3|
2,6,2.7|
2,7,4.6|
3,0,1.4|
3,1,5.2|
3,2,4|
3,3,1|
3,4,8.7|
3,5,3.1|
3,6,3.6|
3,7,4.6|
4,0,8.4|
4,1,1.2|
4,2,0.011|
4,3,8|
4,4,1.9|
4,5,2.3|
4,6,3.9|
4,7,9.7|
5,0,0.65|
5,1,7.5|
5,2,3.2|
5,3,4|
5,4,8.6|
5,5,1.9|
5,6,2.1|
5,7,0.88|
6,0,9|
6,1,9.5|
6,2,8.4|
6,3,2.9|
6,4,3.4|
6,5,3.8|
6,6,4.4|
6,7,7.8|
7,0,7.8|
7,1,5.4|
7,2,3.8|
7,3,9.5|
7,4,1.7|
7,5,8.6|
7,6,4.5|
7,7,7.5|
];
constraint_x6_x5=[
0,0,7.6|
0,1,6.3|
0,2,9.6|
0,3,9.8|
0,4,9.1|
0,5,9.5|
0,6,9.6|
0,7,0.36|
1,0,8.1|
1,1,4.6|
1,2,6.9|
1,3,8|
1,4,8.4|
1,5,3.3|
1,6,2.5|
1,7,3.4|
2,0,4.7|
2,1,5.2|
2,2,7|
2,3,7.5|
2,4,5.2|
2,5,0.1|
2,6,2.4|
2,7,4|
3,0,2.9|
3,1,0.18|
3,2,9.7|
3,3,5.6|
3,4,1.3|
3,5,6.8|
3,6,6.2|
3,7,1.9|
4,0,6.6|
4,1,3|
4,2,3.6|
4,3,5.9|
4,4,3.6|
4,5,7.8|
4,6,9.9|
4,7,7.1|
5,0,0.27|
5,1,1.5|
5,2,7.7|
5,3,0.64|
5,4,9.3|
5,5,8.4|
5,6,3.7|
5,7,5.8|
6,0,8.5|
6,1,4.3|
6,2,8.4|
6,3,4.7|
6,4,5.8|
6,5,8.2|
6,6,2.2|
6,7,6.8|
7,0,7.4|
7,1,5.7|
7,2,0.14|
7,3,0.028|
7,4,3.3|
7,5,8.5|
7,6,8.9|
7,7,5.9|
];
constraint_x7_x3=[
0,0,7.8|
0,1,5.6|
0,2,2.4|
0,3,8.8|
0,4,9.3|
0,5,7.6|
0,6,3.1|
0,7,5.7|
1,0,8.5|
1,1,0.84|
1,2,9.4|
1,3,8.6|
1,4,2.6|
1,5,2.5|
1,6,2.1|
1,7,5|
2,0,1.2|
2,1,6.2|
2,2,3.5|
2,3,9.5|
2,4,3.5|
2,5,9|
2,6,9|
2,7,8.8|
3,0,9.1|
3,1,6.4|
3,2,8.4|
3,3,4.2|
3,4,3.2|
3,5,2.8|
3,6,2.9|
3,7,6.3|
4,0,5.8|
4,1,0.86|
4,2,0.88|
4,3,5.1|
4,4,9.4|
4,5,3.1|
4,6,9.2|
4,7,4|
5,0,9|
5,1,8.4|
5,2,3.9|
5,3,9.6|
5,4,2.6|
5,5,2.6|
5,6,2.1|
5,7,4|
6,0,7|
6,1,3.4|
6,2,0.54|
6,3,1.4|
6,4,2.3|
6,5,1.3|
6,6,0.7|
6,7,2.4|
7,0,1.2|
7,1,9.4|
7,2,7.9|
7,3,2.8|
7,4,1.1|
7,5,6.9|
7,6,1.5|
7,7,8.1|
];
constraint_x7_x6=[
0,0,1.5|
0,1,5.6|
0,2,9.2|
0,3,5.8|
0,4,1.4|
0,5,9.6|
0,6,1.9|
0,7,4|
1,0,7|
1,1,5.4|
1,2,6.4|
1,3,8.1|
1,4,7.7|
1,5,1.2|
1,6,0.15|
1,7,1.4|
2,0,8.7|
2,1,2|
2,2,6.1|
2,3,2.7|
2,4,1.8|
2,5,6.9|
2,6,4.9|
2,7,7.2|
3,0,1.4|
3,1,4.8|
3,2,2.7|
3,3,1.5|
3,4,4|
3,5,5|
3,6,0.63|
3,7,4.5|
4,0,6.8|
4,1,9.3|
4,2,6.9|
4,3,2.4|
4,4,5.4|
4,5,5.1|
4,6,6.4|
4,7,2.4|
5,0,2.8|
5,1,4|
5,2,5.2|
5,3,7.2|
5,4,7.8|
5,5,8.9|
5,6,0.17|
5,7,1.9|
6,0,0.74|
6,1,4.8|
6,2,3.4|
6,3,7.5|
6,4,3.5|
6,5,5.5|
6,6,0.35|
6,7,7.3|
7,0,4.6|
7,1,2.5|
7,2,9.4|
7,3,4.9|
7,4,3.7|
7,5,1.6|
7,6,9|
7,7,2.9|
];
constraint_x8_x4=[
0,0,4.5|
0,1,8|
0,2,4.5|
0,3,5.6|
0,4,0.8|
0,5,8.7|
0,6,1.9|
0,7,7.6|
1,0,3|
1,1,1.2|
1,2,2.3|
1,3,4.7|
1,4,2|
1,5,9|
1,6,2.5|
1,7,5|
2,0,3.5|
2,1,6.8|
2,2,3.9|
2,3,4|
2,4,8.9|
2,5,1.6|
2,6,8.5|
2,7,2.2|
3,0,6.3|
3,1,4.2|
3,2,2|
3,3,0.071|
3,4,2.8|
3,5,0.31|
3,6,6.7|
3,7,3|
4,0,3.9|
4,1,3.3|
4,2,6.2|
4,3,2.2|
4,4,9.5|
4,5,6.9|
4,6,6.5|
4,7,4.7|
5,0,9.7|
5,1,1.1|
5,2,0.51|
5,3,0.31|
5,4,6.1|
5,5,7.1|
5,6,8.7|
5,7,2.4|
6,0,3.6|
6,1,7.3|
6,2,0.37|
6,3,6.4|
6,4,9.5|
6,5,9.8|
6,6,2.2|
6,7,3.8|
7,0,6.4|
7,1,2.1|
7,2,2.7|
7,3,6.3|
7,4,9.1|
7,5,0.26|
7,6,7.2|
7,7,4.7|
];
constraint_x8_x7=[
0,0,6|
0,1,3.3|
0,2,3.9|
0,3,7.5|
0,4,7.2|
0,5,4.2|
0,6,6.5|
0,7,3.6|
1,0,2.3|
1,1,8.8|
1,2,5.5|
1,3,3.7|
1,4,3.7|
1,5,2.6|
1,6,7.3|
1,7,7.5|
2,0,7.2|
2,1,1|
2,2,7.9|
2,3,6.1|
2,4,5.8|
2,5,9.8|
2,6,9.2|
2,7,3.9|
3,0,0.36|
3,1,7.4|
3,2,10|
3,3,3.3|
3,4,5.8|
3,5,4|
3,6,7.2|
3,7,7.1|
4,0,2.7|
4,1,8|
4,2,9.7|
4,3,7.7|
4,4,8.5|
4,5,5.6|
4,6,8.2|
4,7,2.2|
5,0,7.4|
5,1,2.6|
5,2,0.32|
5,3,5.6|
5,4,5.3|
5,5,5.9|
5,6,9.8|
5,7,7.6|
6,0,8.8|
6,1,7.9|
6,2,6.3|
6,3,0.96|
6,4,2.5|
6,5,2.6|
6,6,3.9|
6,7,2.5|
7,0,4.3|
7,1,3.3|
7,2,8.8|
7,3,3.8|
7,4,3.2|
7,5,7.3|
7,6,3.6|
7,7,9.1|
];
constraint_x9_x5=[
0,0,6.8|
0,1,0.73|
0,2,7.2|
0,3,1.5|
0,4,8.2|
0,5,7.1|
0,6,5|
0,7,8.4|
1,0,9.7|
1,1,1.4|
1,2,9.1|
1,3,0.13|
1,4,1.2|
1,5,9.9|
1,6,8.3|
1,7,5.4|
2,0,2.9|
2,1,7.4|
2,2,7.4|
2,3,4.2|
2,4,8.5|
2,5,1.6|
2,6,4.9|
2,7,8.1|
3,0,5.1|
3,1,3.1|
3,2,4.2|
3,3,1.6|
3,4,3.1|
3,5,1.4|
3,6,6.3|
3,7,0.49|
4,0,1.6|
4,1,6.6|
4,2,6.5|
4,3,9.2|
4,4,9.3|
4,5,7.7|
4,6,10|
4,7,0.31|
5,0,9.6|
5,1,4.7|
5,2,0.32|
5,3,2.8|
5,4,5.5|
5,5,0.95|
5,6,8.3|
5,7,6.3|
6,0,2|
6,1,2.7|
6,2,2.3|
6,3,2.2|
6,4,8.1|
6,5,8.8|
6,6,1.3|
6,7,9.8|
7,0,1|
7,1,9.8|
7,2,2.7|
7,3,9.6|
7,4,0.31|
7,5,5|
7,6,1.7|
7,7,5.3|
];
constraint_x10_x6=[
0,0,8.6|
0,1,4.2|
0,2,8.1|
0,3,4.5|
0,4,7.7|
0,5,8.4|
0,6,2.8|
0,7,7.4|
1,0,6.1|
1,1,4|
1,2,8|
1,3,9.7|
1,4,7.3|
1,5,5|
1,6,6.5|
1,7,5.9|
2,0,0.23|
2,1,6.8|
2,2,4.1|
2,3,3.4|
2,4,1.6|
2,5,3.4|
2,6,2.6|
2,7,9.6|
3,0,3.8|
3,1,8.1|
3,2,4|
3,3,5.4|
3,4,7.2|
3,5,5.1|
3,6,4|
3,7,2.2|
4,0,2.8|
4,1,6.4|
4,2,0.37|
4,3,8.5|
4,4,8.3|
4,5,8.6|
4,6,0.45|
4,7,4.8|
5,0,5.4|
5,1,1.1|
5,2,0.3|
5,3,2.6|
5,4,0.31|
5,5,3.6|
5,6,5.8|
5,7,9.9|
6,0,3.2|
6,1,5.6|
6,2,7.7|
6,3,1.2|
6,4,9.1|
6,5,6.6|
6,6,1.7|
6,7,0.25|
7,0,0.79|
7,1,4.4|
7,2,2.6|
7,3,7.2|
7,4,6.6|
7,5,4.8|
7,6,9.5|
7,7,4.6|
];
constraint_x11_x7=[
0,0,4.8|
0,1,2.2|
0,2,2.5|
0,3,0.0093|
0,4,9.3|
0,5,8|
0,6,10|
0,7,8.3|
1,0,5.8|
1,1,8.4|
1,2,5.7|
1,3,2.7|
1,4,2.3|
1,5,6.6|
1,6,5.5|
1,7,9.6|
2,0,8.6|
2,1,0.95|
2,2,7.2|
2,3,9.3|
2,4,7.7|
2,5,9.5|
2,6,5.7|
2,7,7.7|
3,0,5.7|
3,1,6.9|
3,2,3.6|
3,3,1.9|
3,4,8.3|
3,5,9.3|
3,6,8.7|
3,7,6.7|
4,0,0.025|
4,1,0.48|
4,2,7.6|
4,3,6|
4,4,4.5|
4,5,3.9|
4,6,1.8|
4,7,2.2|
5,0,9.5|
5,1,6.1|
5,2,7.6|
5,3,10|
5,4,3.5|
5,5,9.4|
5,6,9.8|
5,7,2|
6,0,1.1|
6,1,5.3|
6,2,0.94|
6,3,8.9|
6,4,0.34|
6,5,8.2|
6,6,8.6|
6,7,6.3|
7,0,5.6|
7,1,6.8|
7,2,0.35|
7,3,0.021|
7,4,9.3|
7,5,4.9|
7,6,2.1|
7,7,6.9|
];
constraint_x12_x8=[
0,0,9.6|
0,1,6.1|
0,2,10|
0,3,2.5|
0,4,5.6|
0,5,5.2|
0,6,1.4|
0,7,0.63|
1,0,3.9|
1,1,3.9|
1,2,3.4|
1,3,7.3|
1,4,9.1|
1,5,2.6|
1,6,1.2|
1,7,9|
2,0,4.8|
2,1,4.8|
2,2,9.4|
2,3,8.2|
2,4,3.2|
2,5,0.65|
2,6,1.3|
2,7,4.8|
3,0,1.1|
3,1,5.8|
3,2,6.5|
3,3,8.9|
3,4,4.5|
3,5,2.7|
3,6,5.4|
3,7,1.7|
4,0,4.6|
4,1,6.2|
4,2,8.6|
4,3,0.4|
4,4,0.55|
4,5,2.7|
4,6,8.4|
4,7,9.4|
5,0,2.7|
5,1,3.5|
5,2,5.7|
5,3,6.1|
5,4,1.9|
5,5,1.2|
5,6,2.6|
5,7,0.75|
6,0,0.11|
6,1,7.8|
6,2,1.1|
6,3,7.8|
6,4,4|
6,5,2.3|
6,6,6.1|
6,7,1|
7,0,2.2|
7,1,7.7|
7,2,4.2|
7,3,3.8|
7,4,7.2|
7,5,5.3|
7,6,1.7|
7,7,7.6|
];
constraint_x13_x9=[
0,0,2.8|
0,1,2|
0,2,1.3|
0,3,2.3|
0,4,1.4|
0,5,2.4|
0,6,5.9|
0,7,7.2|
1,0,9.8|
1,1,3.2|
1,2,5.6|
1,3,1.1|
1,4,8.9|
1,5,7.9|
1,6,7.6|
1,7,2.3|
2,0,7.5|
2,1,6.6|
2,2,3.3|
2,3,2.2|
2,4,7.7|
2,5,4|
2,6,7|
2,7,7.9|
3,0,8.3|
3,1,9.3|
3,2,6.3|
3,3,7.3|
3,4,3.9|
3,5,5.1|
3,6,5.8|
3,7,5.5|
4,0,5.6|
4,1,7.3|
4,2,6.1|
4,3,4.4|
4,4,9.4|
4,5,4.9|
4,6,4.5|
4,7,6.4|
5,0,3.7|
5,1,3.2|
5,2,0.7|
5,3,0.98|
5,4,7.1|
5,5,9.2|
5,6,9.6|
5,7,8.6|
6,0,4.5|
6,1,2.9|
6,2,9.7|
6,3,6.7|
6,4,4.1|
6,5,1.1|
6,6,4.4|
6,7,0.83|
7,0,5|
7,1,4.3|
7,2,4.6|
7,3,1.6|
7,4,5.1|
7,5,6.7|
7,6,8.4|
7,7,1.8|
];
constraint_x14_x10=[
0,0,3.8|
0,1,9.8|
0,2,3.3|
0,3,0.81|
0,4,9.5|
0,5,8.9|
0,6,4.9|
0,7,6.3|
1,0,5.5|
1,1,5.9|
1,2,9.4|
1,3,9.6|
1,4,2|
1,5,0.83|
1,6,3.1|
1,7,7|
2,0,4.4|
2,1,3.3|
2,2,0.37|
2,3,8|
2,4,5.3|
2,5,3.6|
2,6,0.99|
2,7,4.8|
3,0,2|
3,1,2|
3,2,8.2|
3,3,5.7|
3,4,6.1|
3,5,7.5|
3,6,3.9|
3,7,1.9|
4,0,0.76|
4,1,1.7|
4,2,7|
4,3,8|
4,4,3|
4,5,2.9|
4,6,1.5|
4,7,5.3|
5,0,8.1|
5,1,8.1|
5,2,0.36|
5,3,6|
5,4,0.12|
5,5,4.2|
5,6,1.8|
5,7,6.8|
6,0,5|
6,1,9.3|
6,2,6.8|
6,3,0.24|
6,4,9.4|
6,5,0.59|
6,6,7.3|
6,7,6.5|
7,0,9.3|
7,1,5.8|
7,2,5|
7,3,4.1|
7,4,2|
7,5,4.1|
7,6,5.5|
7,7,6.2|
];
constraint_x15_x11=[
0,0,0.77|
0,1,6.7|
0,2,6.9|
0,3,3.9|
0,4,5|
0,5,9.9|
0,6,4.9|
0,7,9.7|
1,0,8.4|
1,1,8.3|
1,2,8.9|
1,3,2.5|
1,4,7.7|
1,5,7.2|
1,6,6.4|
1,7,4|
2,0,6.8|
2,1,9|
2,2,5.1|
2,3,8.5|
2,4,8.5|
2,5,5.4|
2,6,9.6|
2,7,6.1|
3,0,4.5|
3,1,7.3|
3,2,2.1|
3,3,9.2|
3,4,8.7|
3,5,8.8|
3,6,8.4|
3,7,5.8|
4,0,2.9|
4,1,4.1|
4,2,6.2|
4,3,5.4|
4,4,8.5|
4,5,9|
4,6,8|
4,7,6.1|
5,0,5.3|
5,1,6|
5,2,1.9|
5,3,0.42|
5,4,7.7|
5,5,0.3|
5,6,5.1|
5,7,4.7|
6,0,7|
6,1,5.4|
6,2,8.4|
6,3,1.5|
6,4,4.8|
6,5,7.3|
6,6,0.42|
6,7,7.3|
7,0,3.9|
7,1,1.7|
7,2,8.7|
7,3,2|
7,4,1.8|
7,5,5.4|
7,6,9.2|
7,7,7.7|
];
constraint_x16_x12=[
0,0,7.6|
0,1,4.4|
0,2,9.6|
0,3,1.7|
0,4,4.1|
0,5,0.26|
0,6,5.9|
0,7,2.3|
1,0,8|
1,1,0.5|
1,2,2|
1,3,7.1|
1,4,9.2|
1,5,0.69|
1,6,3.3|
1,7,0.62|
2,0,7.9|
2,1,1.9|
2,2,4.1|
2,3,6.5|
2,4,8.9|
2,5,1.2|
2,6,9.1|
2,7,9.1|
3,0,2.5|
3,1,0.68|
3,2,4.1|
3,3,6.3|
3,4,2.3|
3,5,4.2|
3,6,4.8|
3,7,0.68|
4,0,3.7|
4,1,8.1|
4,2,6.8|
4,3,7.5|
4,4,0.38|
4,5,1.8|
4,6,3|
4,7,5.9|
5,0,6.4|
5,1,3.2|
5,2,0.36|
5,3,4|
5,4,7.4|
5,5,4.8|
5,6,5.2|
5,7,8.3|
6,0,2.8|
6,1,7.2|
6,2,3.6|
6,3,0.054|
6,4,7.5|
6,5,3.1|
6,6,7.2|
6,7,5.7|
7,0,6.6|
7,1,1.3|
7,2,5|
7,3,6.5|
7,4,8.6|
7,5,3.6|
7,6,1.4|
7,7,2.5|
];
constraint_x1_y1=[
0,0,5.5|
0,1,9|
0,2,7.1|
0,3,8.5|
0,4,6.9|
0,5,3.2|
0,6,4.5|
0,7,2.7|
1,0,9.1|
1,1,6.2|
1,2,4.5|
1,3,5.4|
1,4,4.7|
1,5,7.9|
1,6,1.3|
1,7,4.9|
2,0,6.8|
2,1,9.5|
2,2,5.1|
2,3,1.2|
2,4,2.2|
2,5,5.7|
2,6,7.8|
2,7,8.8|
3,0,5.7|
3,1,2.1|
3,2,1.2|
3,3,1.8|
3,4,2.5|
3,5,5.6|
3,6,4.4|
3,7,0.3|
4,0,2.4|
4,1,9.7|
4,2,4.4|
4,3,1.9|
4,4,2.4|
4,5,9.8|
4,6,8.6|
4,7,2.4|
5,0,7.9|
5,1,2.9|
5,2,9|
5,3,9.7|
5,4,5.2|
5,5,2.3|
5,6,7.6|
5,7,3.9|
6,0,6.5|
6,1,4.2|
6,2,9.5|
6,3,2.1|
6,4,1|
6,5,2.1|
6,6,4.5|
6,7,9.3|
7,0,7.1|
7,1,7.1|
7,2,5.9|
7,3,8.7|
7,4,1.1|
7,5,2.1|
7,6,2.6|
7,7,3.7|
];
constraint_x2_y2=[
0,0,6.9|
0,1,2.4|
0,2,3.5|
0,3,5.7|
0,4,8.9|
0,5,7.3|
0,6,3.5|
0,7,9.8|
1,0,6.8|
1,1,4.2|
1,2,9.3|
1,3,5.2|
1,4,8|
1,5,1.6|
1,6,5.1|
1,7,5.3|
2,0,6.5|
2,1,3.6|
2,2,2.4|
2,3,9.5|
2,4,4.9|
2,5,3.5|
2,6,8.5|
2,7,3.3|
3,0,4.2|
3,1,3.5|
3,2,9.3|
3,3,7.3|
3,4,7.2|
3,5,8.1|
3,6,5.9|
3,7,8.9|
4,0,2.6|
4,1,8.6|
4,2,9.9|
4,3,8|
4,4,3|
4,5,5.6|
4,6,9.2|
4,7,1.4|
5,0,1.3|
5,1,6.3|
5,2,2.5|
5,3,7|
5,4,9.3|
5,5,3.8|
5,6,5.3|
5,7,1|
6,0,5|
6,1,8.4|
6,2,2.6|
6,3,4.9|
6,4,9.3|
6,5,4.1|
6,6,9.5|
6,7,9.4|
7,0,1.5|
7,1,1.6|
7,2,0.76|
7,3,2.4|
7,4,9.1|
7,5,6.5|
7,6,4.1|
7,7,5.2|
];
constraint_x3_y3=[
0,0,2.3|
0,1,2.2|
0,2,3.2|
0,3,4.5|
0,4,5.6|
0,5,6|
0,6,4.7|
0,7,3.6|
1,0,2.9|
1,1,0.8|
1,2,1.7|
1,3,8.8|
1,4,0.5|
1,5,7.5|
1,6,0.87|
1,7,5.5|
2,0,3.7|
2,1,8.1|
2,2,0.1|
2,3,9.4|
2,4,0.71|
2,5,3.3|
2,6,2|
2,7,4|
3,0,1.2|
3,1,2.2|
3,2,7|
3,3,1.7|
3,4,9.9|
3,5,0.12|
3,6,7|
3,7,5.6|
4,0,9.8|
4,1,6.3|
4,2,2.8|
4,3,8.9|
4,4,3.1|
4,5,6.6|
4,6,4.8|
4,7,2.4|
5,0,2.1|
5,1,6.8|
5,2,6.9|
5,3,4.2|
5,4,3.3|
5,5,1.6|
5,6,0.71|
5,7,6.2|
6,0,6.6|
6,1,3.1|
6,2,8.1|
6,3,5.5|
6,4,10|
6,5,3.2|
6,6,5.8|
6,7,7.2|
7,0,1.6|
7,1,0.052|
7,2,3.7|
7,3,2.7|
7,4,9.7|
7,5,1.4|
7,6,6.6|
7,7,4.4|
];
constraint_x4_y4=[
0,0,8|
0,1,4.1|
0,2,8.5|
0,3,4.3|
0,4,4.3|
0,5,7.6|
0,6,7.6|
0,7,0.65|
1,0,1.2|
1,1,2.1|
1,2,6.4|
1,3,0.18|
1,4,1.9|
1,5,5.7|
1,6,2.1|
1,7,7.6|
2,0,9.9|
2,1,7.4|
2,2,5.4|
2,3,3.4|
2,4,1.2|
2,5,0.51|
2,6,6.1|
2,7,4.8|
3,0,0.13|
3,1,6.7|
3,2,5.1|
3,3,3|
3,4,7.1|
3,5,9.4|
3,6,5|
3,7,5.8|
4,0,7.8|
4,1,6.4|
4,2,7.5|
4,3,9.8|
4,4,3.1|
4,5,5.7|
4,6,9.9|
4,7,4|
5,0,9|
5,1,2|
5,2,7.9|
5,3,1.6|
5,4,4.1|
5,5,4.6|
5,6,6.3|
5,7,0.096|
6,0,3.9|
6,1,9.5|
6,2,5.7|
6,3,0.38|
6,4,6.2|
6,5,9.4|
6,6,8.6|
6,7,2.1|
7,0,1.5|
7,1,7|
7,2,0.76|
7,3,0.085|
7,4,0.047|
7,5,3.8|
7,6,2.8|
7,7,1.6|
];
constraint_x5_y5=[
0,0,6.5|
0,1,4.2|
0,2,1.1|
0,3,8.6|
0,4,6.2|
0,5,1.3|
0,6,5.2|
0,7,7.5|
1,0,7.4|
1,1,0.33|
1,2,7|
1,3,2|
1,4,6.6|
1,5,6.3|
1,6,2.1|
1,7,2|
2,0,2.3|
2,1,4.7|
2,2,7|
2,3,0.92|
2,4,5.1|
2,5,2.7|
2,6,6.9|
2,7,0.48|
3,0,0.09|
3,1,2.8|
3,2,6.1|
3,3,9.7|
3,4,8.4|
3,5,2.5|
3,6,7.4|
3,7,1.5|
4,0,4.5|
4,1,3.8|
4,2,6.8|
4,3,1.9|
4,4,5.9|
4,5,3.7|
4,6,8.4|
4,7,3.8|
5,0,5.7|
5,1,2.8|
5,2,8.2|
5,3,3.9|
5,4,9.3|
5,5,6.9|
5,6,5.4|
5,7,7.1|
6,0,3.9|
6,1,7.2|
6,2,0.93|
6,3,5.4|
6,4,6.4|
6,5,1.3|
6,6,3|
6,7,4.1|
7,0,7.3|
7,1,1.8|
7,2,8.8|
7,3,4.2|
7,4,8.4|
7,5,5.8|
7,6,3.3|
7,7,4.8|
];
constraint_x6_y6=[
0,0,3.7|
0,1,1.8|
0,2,2.7|
0,3,4.4|
0,4,4.3|
0,5,8.3|
0,6,2.5|
0,7,7.3|
1,0,9.9|
1,1,1.9|
1,2,6.9|
1,3,7.3|
1,4,8.1|
1,5,7.7|
1,6,6.2|
1,7,9.9|
2,0,5.1|
2,1,4.6|
2,2,7.8|
2,3,8.2|
2,4,4|
2,5,2.2|
2,6,4.1|
2,7,8.4|
3,0,4.3|
3,1,5.3|
3,2,0.26|
3,3,7.3|
3,4,0.51|
3,5,9.4|
3,6,5.2|
3,7,4.2|
4,0,2.9|
4,1,8.2|
4,2,6.8|
4,3,1.8|
4,4,6.7|
4,5,2.1|
4,6,5.7|
4,7,7.4|
5,0,9.9|
5,1,1.7|
5,2,7|
5,3,7.1|
5,4,9.4|
5,5,9.2|
5,6,0.87|
5,7,2.9|
6,0,5.4|
6,1,4.2|
6,2,0.61|
6,3,1.7|
6,4,0.22|
6,5,5.4|
6,6,2.4|
6,7,1|
7,0,9.3|
7,1,1.9|
7,2,1.5|
7,3,8.5|
7,4,8.9|
7,5,6.1|
7,6,1.9|
7,7,7.6|
];
constraint_x7_y7=[
0,0,6.9|
0,1,7.9|
0,2,2.8|
0,3,7.2|
0,4,5.6|
0,5,9.1|
0,6,7.7|
0,7,1.3|
1,0,2.5|
1,1,7.8|
1,2,2.1|
1,3,6.9|
1,4,6.6|
1,5,9.3|
1,6,9.8|
1,7,9.6|
2,0,3.3|
2,1,6.4|
2,2,1.3|
2,3,6.2|
2,4,3.2|
2,5,0.069|
2,6,1.8|
2,7,9.1|
3,0,4.7|
3,1,0.82|
3,2,5.3|
3,3,3|
3,4,9.3|
3,5,1|
3,6,8.9|
3,7,6.8|
4,0,2.5|
4,1,1.1|
4,2,9.5|
4,3,1.7|
4,4,3.1|
4,5,5.9|
4,6,8.1|
4,7,5|
5,0,7.1|
5,1,5.6|
5,2,2.6|
5,3,4|
5,4,1.2|
5,5,9.1|
5,6,2.7|
5,7,9.3|
6,0,8.9|
6,1,9.6|
6,2,4.4|
6,3,3.3|
6,4,3.6|
6,5,9.1|
6,6,5.8|
6,7,6.8|
7,0,2.2|
7,1,0.28|
7,2,2.6|
7,3,4.7|
7,4,9.2|
7,5,1|
7,6,7.4|
7,7,0.99|
];
initial_distribution_y1=[0.18,0.08,0.27,0.093,0.11,0.069,0.17,0.038];
initial_distribution_y2=[0.14,0.17,0.13,0.16,0.15,0.029,0.14,0.089];
initial_distribution_y3=[0.018,0.097,0.053,0.1,0.2,0.35,0.16,0.02];
initial_distribution_y4=[0.24,0.095,0.15,0.13,0.051,0.041,0.19,0.1];
initial_distribution_y5=[0.18,0.19,0.079,0.057,0.16,0.048,0.21,0.081];
initial_distribution_y6=[0.076,0.14,0.14,0.14,0.13,0.13,0.13,0.11];
initial_distribution_y7=[0.14,0.25,0.03,0.19,0.12,0.043,0.12,0.11];
transition_y1=[
0.2,0.07,0.11,0.22,0.19,0.035,0.12,0.05|
0.28,0.17,0.1,0.0058,0.25,0.0068,0.13,0.059|
0.21,0.029,0.097,0.22,0.033,0.048,0.16,0.21|
0.16,0.11,0.12,0.15,0.16,0.035,0.089,0.17|
0.17,0.059,0.15,0.1,0.17,0.053,0.099,0.2|
0.08,0.21,0.19,0.014,0.16,0.0045,0.2,0.14|
0.16,0.23,0.085,0.015,0.22,0.16,0.12,0.017|
0.18,0.17,0.19,0.14,0.059,0.17,0.017,0.084|
];
transition_y2=[
0.41,0.12,0.11,0.14,0.087,0.076,0.046,0.014|
0.16,0.11,0.11,0.14,0.16,0.017,0.15,0.16|
0.069,0.22,0.16,0.016,0.23,0.18,0.094,0.033|
0.069,0.2,0.22,0.011,0.16,0.0076,0.12,0.22|
0.18,0.085,0.021,0.078,0.13,0.26,0.21,0.033|
0.067,0.068,0.14,0.11,0.22,0.19,0.011,0.2|
0.026,0.14,0.15,0.14,0.13,0.13,0.16,0.13|
0.12,0.092,0.16,0.049,0.21,0.075,0.14,0.15|
];
transition_y3=[
0.093,0.15,0.014,0.16,0.24,0.026,0.21,0.11|
0.052,0.03,0.18,0.23,0.092,0.26,0.041,0.11|
0.071,0.11,0.18,0.19,0.15,0.062,0.15,0.088|
0.084,0.18,0.019,0.098,0.074,0.23,0.11,0.21|
0.16,0.17,0.18,0.03,0.25,0.055,0.085,0.074|
0.11,0.17,0.12,0.14,0.17,0.15,0.073,0.068|
0.083,0.18,0.055,0.29,0.12,0.033,0.17,0.079|
0.22,0.094,0.043,0.18,0.0073,0.2,0.13,0.12|
];
transition_y4=[
0.15,0.16,0.11,0.17,0.11,0.17,0.1,0.038|
0.22,0.14,0.055,0.15,0.2,0.056,0.14,0.041|
0.18,0.17,0.053,0.04,0.17,0.02,0.2,0.17|
0.18,0.091,0.072,0.2,0.18,0.05,0.017,0.22|
0.23,0.0033,0.2,0.016,0.013,0.24,0.28,0.0074|
0.047,0.15,0.052,0.042,0.15,0.18,0.26,0.11|
0.11,0.083,0.14,0.15,0.17,0.15,0.022,0.17|
0.1,0.041,0.086,0.22,0.05,0.11,0.15,0.25|
];
transition_y5=[
0.012,0.12,0.033,0.25,0.11,0.015,0.27,0.2|
0.14,0.081,0.18,0.018,0.17,0.19,0.14,0.077|
0.13,0.18,0.14,0.056,0.035,0.17,0.18,0.12|
0.12,0.19,0.13,0.086,0.2,0.21,0.049,0.014|
0.16,0.17,0.17,0.071,0.1,0.1,0.039,0.18|
0.2,0.092,0.044,0.14,0.11,0.22,0.072,0.14|
0.18,0.13,0.094,0.2,0.016,0.089,0.12,0.17|
0.14,0.12,0.027,0.081,0.25,0.11,0.029,0.24|
];
transition_y6=[
0.14,0.16,0.12,0.22,0.14,0.12,0.024,0.073|
0.15,0.053,0.03,0.21,0.22,0.091,0.12,0.13|
0.023,0.16,0.2,0.031,0.26,0.085,0.031,0.21|
0.088,0.053,0.055,0.23,0.25,0.02,0.23,0.08|
0.23,0.19,0.012,0.23,0.052,0.075,0.064,0.15|
0.016,0.22,0.091,0.13,0.12,0.013,0.22,0.19|
0.1,0.18,0.11,0.12,0.14,0.17,0.03,0.15|
0.11,0.17,0.16,0.064,0.24,0.02,0.1,0.14|
];
transition_y7=[
0.21,0.037,0.23,0.16,0.14,0.11,0.013,0.095|
0.25,0.062,0.22,0.07,0.16,0.049,0.13,0.054|
0.012,0.06,0.011,0.23,0.19,0.21,0.049,0.24|
0.24,0.18,0.045,0.059,0.031,0.067,0.23,0.14|
0.033,0.16,0.11,0.072,0.093,0.18,0.17,0.17|
0.046,0.16,0.0084,0.25,0.02,0.0065,0.23,0.27|
0.004,0.18,0.16,0.19,0.19,0.13,0.012,0.13|
0.18,0.049,0.062,0.19,0.022,0.19,0.13,0.18|
];
